Minimize
  - 18 x(13) - 15 x(14) - 19 x(15) - 16 x(16) - 14 x(17) - 18 x(18)
   - 15 x(19) - 19 x(20) - 16 x(21) - 14 x(22) - 18 x(23) - 15 x(24)
   - 19 x(25) - 16 x(26) - 14 x(27) - 8 x(28) - 5 x(29) - 9 x(30) - 6 x(31)
   - 4 x(32) + [ 12 x(13) * x(1) + 24 x(13) * x(10) + 32 x(13) * x(4)
   + 30 x(13) * x(7) + 32 x(14) * x(4) + 30 x(14) * x(7) + 12 x(14) * x(1)
   + 24 x(14) * x(10) + 24 x(15) * x(10) + 30 x(15) * x(7)
   + 12 x(15) * x(1) + 32 x(15) * x(4) + 12 x(16) * x(1) + 32 x(16) * x(4)
   + 24 x(16) * x(10) + 30 x(16) * x(7) + 30 x(17) * x(7) + 32 x(17) * x(4)
   + 24 x(17) * x(10) + 12 x(17) * x(1) + 32 x(18) * x(5)
   + 24 x(18) * x(11) + 30 x(18) * x(8) + 12 x(18) * x(2) + 32 x(19) * x(5)
   + 30 x(19) * x(8) + 12 x(19) * x(2) + 24 x(19) * x(11) + 30 x(20) * x(8)
   + 12 x(20) * x(2) + 24 x(20) * x(11) + 32 x(20) * x(5) + 12 x(21) * x(2)
   + 24 x(21) * x(11) + 32 x(21) * x(5) + 30 x(21) * x(8)
   + 24 x(22) * x(11) + 32 x(22) * x(5) + 12 x(22) * x(2) + 30 x(22) * x(8)
   + 24 x(23) * x(12) + 12 x(23) * x(3) + 30 x(23) * x(9) + 32 x(23) * x(6)
   + 32 x(24) * x(6) + 12 x(24) * x(3) + 30 x(24) * x(9) + 24 x(24) * x(12)
   + 30 x(25) * x(9) + 24 x(25) * x(12) + 32 x(25) * x(6) + 12 x(25) * x(3)
   + 12 x(26) * x(3) + 24 x(26) * x(12) + 32 x(26) * x(6) + 30 x(26) * x(9)
   + 32 x(27) * x(6) + 30 x(27) * x(9) + 12 x(27) * x(3) + 24 x(27) * x(12)
   ] / 2 
Subject To
 con1: x(3) + x(6) + x(9) + x(12) = 1
 con2: x(2) + x(5) + x(8) + x(11) = 1
 con3: x(1) + x(4) + x(7) + x(10) = 1
 con4: x(17) + x(22) + x(27) + x(32) <= 100
 con5: x(16) + x(21) + x(26) + x(31) <= 100
 con6: x(15) + x(20) + x(25) + x(30) <= 100
 con7: x(14) + x(19) + x(24) + x(29) <= 200
 con8: x(13) + x(18) + x(23) + x(28) <= 100

 QCP_row_for_con9: - 2 x(17) - 2 x(22) - 2 x(27) + 0.5 x(32) + [ x(17) * x(1) + 3 x(17) * x(4)
   + 2.5 x(17) * x(7) + 2.5 x(17) * x(10) + x(22) * x(2) + 3 x(22) * x(5)
   + 2.5 x(22) * x(8) + 2.5 x(22) * x(11) + x(27) * x(3) + 3 x(27) * x(6)
   + 2.5 x(27) * x(9) + 2.5 x(27) * x(12) ] <= 0
 QCP_row_for_con10: - 2 x(17) - 2 x(22) - 2 x(27) + [ 3 x(17) * x(1) + x(17) * x(4)
   + x(17) * x(7) + 1.5 x(17) * x(10) + 3 x(22) * x(2) + x(22) * x(5)
   + x(22) * x(8) + 1.5 x(22) * x(11) + 3 x(27) * x(3) + x(27) * x(6)
   + x(27) * x(9) + 1.5 x(27) * x(12) ] <= 0
 QCP_row_for_con11: - 2 x(16) - 2 x(21) - 2 x(26) + 0.5 x(31) + [ x(16) * x(1) + 3 x(16) * x(4)
   + 2.5 x(16) * x(7) + 2.5 x(16) * x(10) + x(21) * x(2) + 3 x(21) * x(5)
   + 2.5 x(21) * x(8) + 2.5 x(21) * x(11) + x(26) * x(3) + 3 x(26) * x(6)
   + 2.5 x(26) * x(9) + 2.5 x(26) * x(12) ] <= 0
 QCP_row_for_con12: - 2 x(16) - 2 x(21) - 2 x(26) + [ 3 x(16) * x(1) + x(16) * x(4)
   + x(16) * x(7) + 1.5 x(16) * x(10) + 3 x(21) * x(2) + x(21) * x(5)
   + x(21) * x(8) + 1.5 x(21) * x(11) + 3 x(26) * x(3) + x(26) * x(6)
   + x(26) * x(9) + 1.5 x(26) * x(12) ] <= 0
 QCP_row_for_con13: - 2.6 x(15) - 2.6 x(20) - 2.6 x(25) - 0.1 x(30) + [ x(15) * x(1) + 3 x(15) * x(4)
   + 2.5 x(15) * x(7) + 2.5 x(15) * x(10) + x(20) * x(2) + 3 x(20) * x(5)
   + 2.5 x(20) * x(8) + 2.5 x(20) * x(11) + x(25) * x(3) + 3 x(25) * x(6)
   + 2.5 x(25) * x(9) + 2.5 x(25) * x(12) ] <= 0
 QCP_row_for_con14:  - 2 x(15) - 2 x(20) - 2 x(25) + [ 3 x(15) * x(1) + x(15) * x(4)
   + x(15) * x(7) + 1.5 x(15) * x(10) + 3 x(20) * x(2) + x(20) * x(5)
   + x(20) * x(8) + 1.5 x(20) * x(11) + 3 x(25) * x(3) + x(25) * x(6)
   + x(25) * x(9) + 1.5 x(25) * x(12) ] <= 0
 QCP_row_for_con15: - 2.5 x(14) - 2.5 x(19) - 2.5 x(24) + [ x(14) * x(1) + 3 x(14) * x(4)
   + 2.5 x(14) * x(7) + 2.5 x(14) * x(10) + x(19) * x(2) + 3 x(19) * x(5)
   + 2.5 x(19) * x(8) + 2.5 x(19) * x(11) + x(24) * x(3) + 3 x(24) * x(6)
   + 2.5 x(24) * x(9) + 2.5 x(24) * x(12) ] <= 0
 QCP_row_for_con16: - 1.5 x(14) - 1.5 x(19) - 1.5 x(24) + 0.5 x(29) + [ 3 x(14) * x(1) + x(14) * x(4)
   + x(14) * x(7) + 1.5 x(14) * x(10) + 3 x(19) * x(2) + x(19) * x(5)
   + x(19) * x(8) + 1.5 x(19) * x(11) + 3 x(24) * x(3) + x(24) * x(6)
   + x(24) * x(9) + 1.5 x(24) * x(12) ] <= 0
 QCP_row_for_con17: - 2 x(13) - 2 x(18) - 2 x(23) + 0.5 x(28) + [ x(13) * x(1) + 3 x(13) * x(4)
   + 2.5 x(13) * x(7) + 2.5 x(13) * x(10) + x(18) * x(2) + 3 x(18) * x(5)
   + 2.5 x(18) * x(8) + 2.5 x(18) * x(11) + x(23) * x(3) + 3 x(23) * x(6)
   + 2.5 x(23) * x(9) + 2.5 x(23) * x(12) ] <= 0
 QCP_row_for_con18: - 2.5 x(13) - 2.5 x(18) - 2.5 x(23) - 0.5 x(28) + [ 3 x(13) * x(1) + x(13) * x(4)
   + x(13) * x(7) + 1.5 x(13) * x(10) + 3 x(18) * x(2) + x(18) * x(5)
   + x(18) * x(8) + 1.5 x(18) * x(11) + 3 x(23) * x(3) + x(23) * x(6)
   + x(23) * x(9) + 1.5 x(23) * x(12) ] <= 0
 QCP_row_for_con19: [ x(13) * x(7) + x(14) * x(7)
   + x(15) * x(7) + x(16) * x(7) + x(17) * x(7) + x(18) * x(8)
   + x(19) * x(8) + x(20) * x(8) + x(21) * x(8) + x(22) * x(8)
   + x(23) * x(9) + x(24) * x(9) + x(25) * x(9) + x(26) * x(9)
   + x(27) * x(9) ] <= 50
Bounds
 x(13) <= 100
 x(14) <= 200
 x(15) <= 100
 x(16) <= 100
 x(17) <= 100
 x(18) <= 100
 x(19) <= 200
 x(20) <= 100
 x(21) <= 100
 x(22) <= 100
 x(23) <= 100
 x(24) <= 200
 x(25) <= 100
 x(26) <= 100
 x(27) <= 100
 x(28) <= 100
 x(29) <= 200
 x(30) <= 100
 x(31) <= 100
 x(32) <= 100
 x(1) <= 1
 x(2) <= 1
 x(3) <= 1
 x(4) <= 1
 x(5) <= 1
 x(6) <= 1
 x(7) <= 1
 x(8) <= 1
 x(9) <= 1
 x(10) <= 1
 x(11) <= 1
 x(12) <= 1

End
